certificates/rado_a27_c25_N86.cnf
c Rad2 upper bound instance: x1 + 27*x2 - x3 = 25, interval [1,86]
p cnf 86 348
1 3 0
-1 -3 0
1 2 30 0
-1 -2 -30 0
1 3 57 0
-1 -3 -57 0
1 4 84 0
-1 -4 -84 0
1 2 4 0
-1 -2 -4 0
2 31 0
-2 -31 0
2 3 58 0
-2 -3 -58 0
2 4 85 0
-2 -4 -85 0
1 3 5 0
-1 -3 -5 0
2 3 32 0
-2 -3 -32 0
3 59 0
-3 -59 0
3 4 86 0
-3 -4 -86 0
1 4 6 0
-1 -4 -6 0
2 4 33 0
-2 -4 -33 0
3 4 60 0
-3 -4 -60 0
1 5 7 0
-1 -5 -7 0
2 5 34 0
-2 -5 -34 0
3 5 61 0
-3 -5 -61 0
1 6 8 0
-1 -6 -8 0
2 6 35 0
-2 -6 -35 0
3 6 62 0
-3 -6 -62 0
1 7 9 0
-1 -7 -9 0
2 7 36 0
-2 -7 -36 0
3 7 63 0
-3 -7 -63 0
1 8 10 0
-1 -8 -10 0
2 8 37 0
-2 -8 -37 0
3 8 64 0
-3 -8 -64 0
1 9 11 0
-1 -9 -11 0
2 9 38 0
-2 -9 -38 0
3 9 65 0
-3 -9 -65 0
1 10 12 0
-1 -10 -12 0
2 10 39 0
-2 -10 -39 0
3 10 66 0
-3 -10 -66 0
1 11 13 0
-1 -11 -13 0
2 11 40 0
-2 -11 -40 0
3 11 67 0
-3 -11 -67 0
1 12 14 0
-1 -12 -14 0
2 12 41 0
-2 -12 -41 0
3 12 68 0
-3 -12 -68 0
1 13 15 0
-1 -13 -15 0
2 13 42 0
-2 -13 -42 0
3 13 69 0
-3 -13 -69 0
1 14 16 0
-1 -14 -16 0
2 14 43 0
-2 -14 -43 0
3 14 70 0
-3 -14 -70 0
1 15 17 0
-1 -15 -17 0
2 15 44 0
-2 -15 -44 0
3 15 71 0
-3 -15 -71 0
1 16 18 0
-1 -16 -18 0
2 16 45 0
-2 -16 -45 0
3 16 72 0
-3 -16 -72 0
1 17 19 0
-1 -17 -19 0
2 17 46 0
-2 -17 -46 0
3 17 73 0
-3 -17 -73 0
1 18 20 0
-1 -18 -20 0
2 18 47 0
-2 -18 -47 0
3 18 74 0
-3 -18 -74 0
1 19 21 0
-1 -19 -21 0
2 19 48 0
-2 -19 -48 0
3 19 75 0
-3 -19 -75 0
1 20 22 0
-1 -20 -22 0
2 20 49 0
-2 -20 -49 0
3 20 76 0
-3 -20 -76 0
1 21 23 0
-1 -21 -23 0
2 21 50 0
-2 -21 -50 0
3 21 77 0
-3 -21 -77 0
1 22 24 0
-1 -22 -24 0
2 22 51 0
-2 -22 -51 0
3 22 78 0
-3 -22 -78 0
1 23 25 0
-1 -23 -25 0
2 23 52 0
-2 -23 -52 0
3 23 79 0
-3 -23 -79 0
1 24 26 0
-1 -24 -26 0
2 24 53 0
-2 -24 -53 0
3 24 80 0
-3 -24 -80 0
1 25 27 0
-1 -25 -27 0
2 25 54 0
-2 -25 -54 0
3 25 81 0
-3 -25 -81 0
1 26 28 0
-1 -26 -28 0
2 26 55 0
-2 -26 -55 0
3 26 82 0
-3 -26 -82 0
1 27 29 0
-1 -27 -29 0
2 27 56 0
-2 -27 -56 0
3 27 83 0
-3 -27 -83 0
1 28 30 0
-1 -28 -30 0
2 28 57 0
-2 -28 -57 0
3 28 84 0
-3 -28 -84 0
1 29 31 0
-1 -29 -31 0
2 29 58 0
-2 -29 -58 0
3 29 85 0
-3 -29 -85 0
1 30 32 0
-1 -30 -32 0
2 30 59 0
-2 -30 -59 0
3 30 86 0
-3 -30 -86 0
1 31 33 0
-1 -31 -33 0
2 31 60 0
-2 -31 -60 0
1 32 34 0
-1 -32 -34 0
2 32 61 0
-2 -32 -61 0
1 33 35 0
-1 -33 -35 0
2 33 62 0
-2 -33 -62 0
1 34 36 0
-1 -34 -36 0
2 34 63 0
-2 -34 -63 0
1 35 37 0
-1 -35 -37 0
2 35 64 0
-2 -35 -64 0
1 36 38 0
-1 -36 -38 0
2 36 65 0
-2 -36 -65 0
1 37 39 0
-1 -37 -39 0
2 37 66 0
-2 -37 -66 0
1 38 40 0
-1 -38 -40 0
2 38 67 0
-2 -38 -67 0
1 39 41 0
-1 -39 -41 0
2 39 68 0
-2 -39 -68 0
1 40 42 0
-1 -40 -42 0
2 40 69 0
-2 -40 -69 0
1 41 43 0
-1 -41 -43 0
2 41 70 0
-2 -41 -70 0
1 42 44 0
-1 -42 -44 0
2 42 71 0
-2 -42 -71 0
1 43 45 0
-1 -43 -45 0
2 43 72 0
-2 -43 -72 0
1 44 46 0
-1 -44 -46 0
2 44 73 0
-2 -44 -73 0
1 45 47 0
-1 -45 -47 0
2 45 74 0
-2 -45 -74 0
1 46 48 0
-1 -46 -48 0
2 46 75 0
-2 -46 -75 0
1 47 49 0
-1 -47 -49 0
2 47 76 0
-2 -47 -76 0
1 48 50 0
-1 -48 -50 0
2 48 77 0
-2 -48 -77 0
1 49 51 0
-1 -49 -51 0
2 49 78 0
-2 -49 -78 0
1 50 52 0
-1 -50 -52 0
2 50 79 0
-2 -50 -79 0
1 51 53 0
-1 -51 -53 0
2 51 80 0
-2 -51 -80 0
1 52 54 0
-1 -52 -54 0
2 52 81 0
-2 -52 -81 0
1 53 55 0
-1 -53 -55 0
2 53 82 0
-2 -53 -82 0
1 54 56 0
-1 -54 -56 0
2 54 83 0
-2 -54 -83 0
1 55 57 0
-1 -55 -57 0
2 55 84 0
-2 -55 -84 0
1 56 58 0
-1 -56 -58 0
2 56 85 0
-2 -56 -85 0
1 57 59 0
-1 -57 -59 0
2 57 86 0
-2 -57 -86 0
1 58 60 0
-1 -58 -60 0
1 59 61 0
-1 -59 -61 0
1 60 62 0
-1 -60 -62 0
1 61 63 0
-1 -61 -63 0
1 62 64 0
-1 -62 -64 0
1 63 65 0
-1 -63 -65 0
1 64 66 0
-1 -64 -66 0
1 65 67 0
-1 -65 -67 0
1 66 68 0
-1 -66 -68 0
1 67 69 0
-1 -67 -69 0
1 68 70 0
-1 -68 -70 0
1 69 71 0
-1 -69 -71 0
1 70 72 0
-1 -70 -72 0
1 71 73 0
-1 -71 -73 0
1 72 74 0
-1 -72 -74 0
1 73 75 0
-1 -73 -75 0
1 74 76 0
-1 -74 -76 0
1 75 77 0
-1 -75 -77 0
1 76 78 0
-1 -76 -78 0
1 77 79 0
-1 -77 -79 0
1 78 80 0
-1 -78 -80 0
1 79 81 0
-1 -79 -81 0
1 80 82 0
-1 -80 -82 0
1 81 83 0
-1 -81 -83 0
1 82 84 0
-1 -82 -84 0
1 83 85 0
-1 -83 -85 0
1 84 86 0
-1 -84 -86 0
