certificates/rado_a27_c25_N86.drat
-84 -86 0
d -84 -1 -86 0
28 30 84 0
-3 -86 0
-86 0
84 0
3 0
-1 0
-59 0
-28 0
61 0
57 0
30 0
26 0
-5 0
-82 0
7 0
80 0
-63 0
-24 0
65 0
22 0
-9 0
-78 0
11 0
76 0
-67 0
-20 0
69 0
18 0
-13 0
-74 0
15 0
72 0
-71 0
-16 0
73 0
14 0
-17 0
-70 0
19 0
68 0
-75 0
-12 0
77 0
10 0
-21 0
-66 0
23 0
64 0
-79 0
-8 0
81 0
6 0
-25 0
-62 0
27 0
60 0
-83 0
-4 0
85 0
2 0
-29 0
-31 0
-58 0
-32 0
-36 0
-40 0
-44 0
-48 0
-52 0
-56 0
-55 0
-51 0
-47 0
-43 0
-39 0
-35 0
0
